Running for instance ./models/r104.txt
Optimize a model with 101 rows, 2000 columns and 10289 nonzeros
Variable types: 0 continuous, 2000 integer (0 binary)
Coefficient statistics:
  Matrix range     [1e+00, 1e+00]
  Objective range  [3e+01, 2e+02]
  Bounds range     [1e+00, 1e+00]
  RHS range        [1e+00, 2e+01]
Presolve removed 0 rows and 10 columns
Presolve time: 0.01s
Presolved: 101 rows, 1990 columns, 10248 nonzeros
Variable types: 0 continuous, 1990 integer (1990 binary)

Root relaxation: objective 2.115923e+03, 631 iterations, 0.02 seconds

    Nodes    |    Current Node    |     Objective Bounds      |     Work
 Expl Unexpl |  Obj  Depth IntInf | Incumbent    BestBd   Gap | It/Node Time

     0     0 2115.92257    0   99          - 2115.92257      -     -    0s
H    0     0                    2426.1151633 2115.92257  12.8%     -    0s
     0     0 2125.58668    0  107 2426.11516 2125.58668  12.4%     -    0s
     0     0 2125.73063    0  104 2426.11516 2125.73063  12.4%     -    0s
     0     0 2127.58856    0  110 2426.11516 2127.58856  12.3%     -    0s
     0     0 2128.25940    0  110 2426.11516 2128.25940  12.3%     -    0s
     0     0 2128.49997    0  111 2426.11516 2128.49997  12.3%     -    0s
     0     0 2128.58183    0  112 2426.11516 2128.58183  12.3%     -    0s
     0     0 2128.58688    0  113 2426.11516 2128.58688  12.3%     -    0s
H    0     0                    2380.9461252 2128.58688  10.6%     -    0s
     0     0 2129.02011    0  113 2380.94613 2129.02011  10.6%     -    0s
     0     0 2129.17373    0  115 2380.94613 2129.17373  10.6%     -    0s
     0     0 2129.24308    0  116 2380.94613 2129.24308  10.6%     -    0s
     0     0 2129.27437    0  116 2380.94613 2129.27437  10.6%     -    0s
     0     0 2129.30175    0  117 2380.94613 2129.30175  10.6%     -    0s
     0     0 2129.30450    0  118 2380.94613 2129.30450  10.6%     -    0s
     0     0 2129.66866    0  120 2380.94613 2129.66866  10.6%     -    0s
     0     0 2129.68072    0  119 2380.94613 2129.68072  10.6%     -    0s
     0     0 2130.01312    0  120 2380.94613 2130.01312  10.5%     -    0s
     0     0 2130.11076    0  124 2380.94613 2130.11076  10.5%     -    0s
     0     0 2130.12616    0  125 2380.94613 2130.12616  10.5%     -    0s
     0     0 2130.12616    0  125 2380.94613 2130.12616  10.5%     -    0s
     0     2 2130.12616    0  125 2380.94613 2130.12616  10.5%     -    0s
H   35    37                    2341.7249608 2139.01862  8.66%  50.5    1s
H 1071   903                    2334.4013652 2158.72708  7.53%  30.1    3s
* 1285   992              33    2269.7835109 2161.33770  4.78%  34.3    3s
  2945  1449 2243.09366   56   99 2269.78351 2190.39596  3.50%  34.3    5s
 14401  4133 2251.19844   37   94 2269.78351 2231.25132  1.70%  33.8   10s

Cutting planes:
  Gomory: 2
  MIR: 26
  Flow cover: 13
  Zero half: 1

Explored 28857 nodes (941664 simplex iterations) in 13.87 seconds
Thread count was 8 (of 8 available processors)

Solution count 5: 2269.78 2334.4 2341.72 ... 2426.12

Optimal solution found (tolerance 1.00e-04)
Best objective 2.269783510911e+03, best bound 2.269783510911e+03, gap 0.0000%
13
38 85 98 91
44 43 57 42 94
7 18 94 59 56 74 54
79 80 70
99 37 16 86 98
88 62 47 32 60
2 76 78 29 68 77
92 2 4 21
92 87 95 5 97
49 36 19 30
66 46 64
11 63 82 48 7
14 15 81 71
9 35 34
53 73 22 1
84 52
67 39 75 72
8 45 17 93
23 55 24
26
69 20 33 41
Distance: 2269.78351091
Execution time:  0.256458316667  minutes
